maximize 

st


bounds

-inf<= f_1_0 <= +inf
-inf<= f_1_1 <= +inf
-inf<= f_1_2 <= +inf
-inf<= f_2_0 <= +inf
-inf<= f_2_1 <= +inf
-inf<= f_2_2 <= +inf
-inf<= f_3_0 <= +inf
-inf<= f_3_1 <= +inf
-inf<= f_3_2 <= +inf
-inf<= f_4_0 <= +inf
-inf<= f_4_1 <= +inf
-inf<= f_4_2 <= +inf
end
